c Source : https://houseofgraphs.org/graphs/92
c HoG id : 92
c Number of vertices : 10
c Number of edges : 30
c Maximum clique size : 5
p edge 10 30
e 1 7
e 1 8
e 1 9
e 1 10
e 2 7
e 2 8
e 2 9
e 2 10
e 3 7
e 3 8
e 3 9
e 3 10
e 4 7
e 4 8
e 4 9
e 4 10
e 5 7
e 5 8
e 5 9
e 5 10
e 6 7
e 6 8
e 6 9
e 6 10
e 7 8
e 7 9
e 7 10
e 8 9
e 8 10
e 9 10